(set-option :print-success false)
(set-logic QF_UF)
(declare-sort x155 0)
(declare-sort x104 0)
(declare-fun x24 (x104 x104) x104)
(declare-fun x17 () x104)
(declare-fun x103 (x104 x104) x104)
(declare-fun x14 () x104)
(declare-fun x90 () x104)
(declare-fun x140 () x104)
(declare-fun x12 () x104)
(assert (let ((x137 (x24 x12 x17)) (x22 (x24 x14 x12)) (x124 (x24 x17 x12)) (x83 (x24 x14 x17)) (x141 (x24 x14 x90)) (x74 (x24 x140 x90)) (x134 (x24 x17 x90)) (x64 (x24 x12 x12)) (x25 (x24 x90 x140)) (x130 (x24 x12 x140)) (x36 (x24 x140 x14)) (x80 (x24 x12 x14)) (x70 (x24 x14 x14)) (x7 (x24 x90 x17)) (x133 (x24 x14 x140)) (x32 (x24 x90 x14)) (x88 (x24 x12 x90)) (x26 (x24 x140 x140)) (x157 (x24 x17 x140)) (x31 (x24 x17 x14)) (x97 (x24 x90 x12)) (x60 (x24 x140 x12)) (x37 (x24 x17 x17)) (x125 (x24 x140 x17)) (x67 (x24 x90 x90))) (and (and (and (and (and (and (and (and (or (or (or (= x26 x12) (or (= x26 x17) (= x26 x140))) (= x14 x26)) (= x26 x90)) (or (= x125 x90) (or (= x14 x125) (or (= x125 x12) (or (= x125 x140) (= x17 x125)))))) (or (or (or (= x60 x12) (or (= x60 x17) (= x140 x60))) (= x14 x60)) (= x90 x60))) (or (or (or (= x12 x36) (or (= x36 x140) (= x36 x17))) (= x36 x14)) (= x36 x90))) (or (= x74 x90) (or (or (= x12 x74) (or (= x17 x74) (= x140 x74))) (= x74 x14)))) (and (or (= x134 x90) (or (= x14 x134) (or (or (= x134 x17) (= x134 x140)) (= x12 x134)))) (and (and (or (or (= x14 x124) (or (= x12 x124) (or (= x124 x17) (= x140 x124)))) (= x90 x124)) (and (or (= x90 x37) (or (= x14 x37) (or (= x12 x37) (or (= x37 x140) (= x37 x17))))) (or (= x157 x90) (or (= x157 x14) (or (= x157 x12) (or (= x157 x140) (= x17 x157))))))) (or (or (= x14 x31) (or (= x12 x31) (or (= x17 x31) (= x140 x31)))) (= x31 x90))))) (and (or (or (or (= x12 x88) (or (= x140 x88) (= x88 x17))) (= x88 x14)) (= x90 x88)) (and (or (= x80 x90) (or (= x14 x80) (or (= x80 x12) (or (= x17 x80) (= x140 x80))))) (and (or (or (= x14 x64) (or (or (= x64 x17) (= x140 x64)) (= x64 x12))) (= x64 x90)) (and (or (or (or (or (= x137 x17) (= x137 x140)) (= x12 x137)) (= x137 x14)) (= x90 x137)) (or (= x90 x130) (or (or (= x130 x12) (or (= x17 x130) (= x130 x140))) (= x14 x130)))))))) (and (and (and (and (or (or (= x14 x83) (or (= x12 x83) (or (= x83 x140) (= x17 x83)))) (= x83 x90)) (or (or (= x14 x133) (or (= x133 x12) (or (= x133 x140) (= x133 x17)))) (= x90 x133))) (or (= x22 x90) (or (= x22 x14) (or (or (= x22 x17) (= x140 x22)) (= x12 x22))))) (or (= x70 x90) (or (or (or (= x70 x17) (= x70 x140)) (= x12 x70)) (= x70 x14)))) (or (= x141 x90) (or (or (= x12 x141) (or (= x141 x140) (= x17 x141))) (= x14 x141))))) (and (and (and (or (or (or (= x12 x97) (or (= x17 x97) (= x140 x97))) (= x14 x97)) (= x90 x97)) (and (or (or (= x14 x25) (or (= x25 x12) (or (= x25 x140) (= x25 x17)))) (= x90 x25)) (or (or (= x14 x7) (or (or (= x7 x140) (= x17 x7)) (= x12 x7))) (= x90 x7)))) (or (= x32 x90) (or (= x14 x32) (or (= x32 x12) (or (= x17 x32) (= x140 x32)))))) (or (= x67 x90) (or (or (or (= x17 x67) (= x67 x140)) (= x67 x12)) (= x14 x67)))))))
(assert (and (or (= (x24 x90 (x24 x90 x90)) x90) (or (or (or (= (x24 x140 (x24 x90 x140)) x90) (= (x24 x17 (x24 x90 x17)) x90)) (= (x24 x12 (x24 x90 x12)) x90)) (= (x24 x14 (x24 x90 x14)) x90))) (and (and (and (or (= (x24 x90 (x24 x140 x90)) x140) (or (= x140 (x24 x14 (x24 x140 x14))) (or (= (x24 x12 (x24 x140 x12)) x140) (or (= x140 (x24 x17 (x24 x140 x17))) (= x140 (x24 x140 (x24 x140 x140))))))) (or (or (or (or (= x17 (x24 x17 (x24 x17 x17))) (= (x24 x140 (x24 x17 x140)) x17)) (= (x24 x12 (x24 x17 x12)) x17)) (= (x24 x14 (x24 x17 x14)) x17)) (= (x24 x90 (x24 x17 x90)) x17))) (or (or (= x12 (x24 x14 (x24 x12 x14))) (or (or (= x12 (x24 x140 (x24 x12 x140))) (= (x24 x17 (x24 x12 x17)) x12)) (= (x24 x12 (x24 x12 x12)) x12))) (= x12 (x24 x90 (x24 x12 x90))))) (or (= x14 (x24 x90 (x24 x14 x90))) (or (= x14 (x24 x14 (x24 x14 x14))) (or (= (x24 x12 (x24 x14 x12)) x14) (or (= x14 (x24 x17 (x24 x14 x17))) (= (x24 x140 (x24 x14 x140)) x14))))))))
(assert (and (and (or (or (or (= (x24 x14 (x24 x14 x12)) x12) (or (= x17 (x24 x14 (x24 x14 x17))) (= (x24 x14 (x24 x14 x140)) x140))) (= x14 (x24 x14 (x24 x14 x14)))) (= (x24 x14 (x24 x14 x90)) x90)) (and (or (= x90 (x24 x12 (x24 x12 x90))) (or (or (= x12 (x24 x12 (x24 x12 x12))) (or (= x17 (x24 x12 (x24 x12 x17))) (= (x24 x12 (x24 x12 x140)) x140))) (= (x24 x12 (x24 x12 x14)) x14))) (and (or (= (x24 x140 (x24 x140 x90)) x90) (or (or (or (= (x24 x140 (x24 x140 x17)) x17) (= (x24 x140 (x24 x140 x140)) x140)) (= (x24 x140 (x24 x140 x12)) x12)) (= (x24 x140 (x24 x140 x14)) x14))) (or (= x90 (x24 x17 (x24 x17 x90))) (or (or (= x12 (x24 x17 (x24 x17 x12))) (or (= (x24 x17 (x24 x17 x17)) x17) (= (x24 x17 (x24 x17 x140)) x140))) (= x14 (x24 x17 (x24 x17 x14)))))))) (or (or (or (or (= x140 (x24 x90 (x24 x90 x140))) (= (x24 x90 (x24 x90 x17)) x17)) (= x12 (x24 x90 (x24 x90 x12)))) (= x14 (x24 x90 (x24 x90 x14)))) (= (x24 x90 (x24 x90 x90)) x90))))
(assert (or (and (and (and (not (= (x24 (x24 x12 x90) x90) x12)) (and (not (= x140 (x24 (x24 x140 x90) x90))) (not (= x17 (x24 (x24 x17 x90) x90))))) (not (= (x24 (x24 x14 x90) x90) x14))) (not (= (x24 (x24 x90 x90) x90) x90))) (or (or (or (and (not (= x90 (x24 (x24 x90 x140) x140))) (and (and (and (not (= x140 (x24 (x24 x140 x140) x140))) (not (= (x24 (x24 x17 x140) x140) x17))) (not (= (x24 (x24 x12 x140) x140) x12))) (not (= (x24 (x24 x14 x140) x140) x14)))) (and (not (= x90 (x24 (x24 x90 x17) x17))) (and (not (= x14 (x24 (x24 x14 x17) x17))) (and (and (not (= (x24 (x24 x140 x17) x17) x140)) (not (= x17 (x24 (x24 x17 x17) x17)))) (not (= x12 (x24 (x24 x12 x17) x17))))))) (and (not (= (x24 (x24 x90 x12) x12) x90)) (and (not (= x14 (x24 (x24 x14 x12) x12))) (and (not (= x12 (x24 (x24 x12 x12) x12))) (and (not (= x140 (x24 (x24 x140 x12) x12))) (not (= x17 (x24 (x24 x17 x12) x12)))))))) (and (and (not (= x14 (x24 (x24 x14 x14) x14))) (and (and (not (= x17 (x24 (x24 x17 x14) x14))) (not (= (x24 (x24 x140 x14) x14) x140))) (not (= x12 (x24 (x24 x12 x14) x14))))) (not (= (x24 (x24 x90 x14) x14) x90))))))
(assert (not (and (= (x24 x90 x90) x140) (and (= (x24 x90 x14) x17) (and (= x12 (x24 x90 x12)) (and (and (= x90 (x24 x90 x140)) (and (and (and (and (and (= x17 (x24 x14 x140)) (and (and (= x140 (x24 x12 x14)) (and (and (= x90 (x24 x12 x17)) (and (and (and (and (= (x24 x17 x12) x14) (and (and (= x140 (x24 x17 x140)) (and (and (= (x24 x140 x14) x14) (and (= (x24 x140 x12) x90) (and (= (x24 x140 x140) x12) (= x140 (x24 x140 x17))))) (= x17 (x24 x140 x90)))) (= (x24 x17 x17) x17))) (= x12 (x24 x17 x14))) (= (x24 x17 x90) x90)) (= (x24 x12 x140) x14))) (= (x24 x12 x12) x17))) (= x12 (x24 x12 x90)))) (= x12 (x24 x14 x17))) (= x140 (x24 x14 x12))) (= x90 (x24 x14 x14))) (= (x24 x14 x90) x14))) (= x14 (x24 x90 x17))))))))
(assert (let ((x36 (x24 x14 x14)) (x74 (x24 x90 x90)) (x60 (x24 x12 x12)) (x125 (x24 x17 x17)) (x26 (x24 x140 x140))) (or (and (not (= x90 x74)) (and (not (= x36 x90)) (and (and (not (= x26 x90)) (not (= x90 x125))) (not (= x90 x60))))) (or (or (and (not (= x12 x74)) (and (and (and (not (= x12 x26)) (not (= x125 x12))) (not (= x12 x60))) (not (= x12 x36)))) (or (and (not (= x74 x17)) (and (and (not (= x60 x17)) (and (not (= x125 x17)) (not (= x17 x26)))) (not (= x36 x17)))) (and (and (and (not (= x140 x60)) (and (not (= x140 x26)) (not (= x125 x140)))) (not (= x36 x140))) (not (= x140 x74))))) (and (not (= x14 x74)) (and (not (= x36 x14)) (and (not (= x14 x60)) (and (not (= x26 x14)) (not (= x14 x125))))))))))
(assert (or (and (not (= x90 (x24 (x24 x90 x90) x90))) (and (and (and (not (= (x24 (x24 x90 x140) x90) x140)) (not (= x17 (x24 (x24 x90 x17) x90)))) (not (= x12 (x24 (x24 x90 x12) x90)))) (not (= x14 (x24 (x24 x90 x14) x90))))) (or (and (and (not (= (x24 (x24 x14 x14) x14) x14)) (and (and (not (= (x24 (x24 x14 x140) x14) x140)) (not (= x17 (x24 (x24 x14 x17) x14)))) (not (= x12 (x24 (x24 x14 x12) x14))))) (not (= (x24 (x24 x14 x90) x14) x90))) (or (or (and (and (not (= x14 (x24 (x24 x17 x14) x17))) (and (not (= (x24 (x24 x17 x12) x17) x12)) (and (not (= x17 (x24 (x24 x17 x17) x17))) (not (= (x24 (x24 x17 x140) x17) x140))))) (not (= x90 (x24 (x24 x17 x90) x17)))) (and (not (= x90 (x24 (x24 x140 x90) x140))) (and (and (and (not (= (x24 (x24 x140 x140) x140) x140)) (not (= x17 (x24 (x24 x140 x17) x140)))) (not (= x12 (x24 (x24 x140 x12) x140)))) (not (= (x24 (x24 x140 x14) x140) x14))))) (and (not (= x90 (x24 (x24 x12 x90) x12))) (and (not (= x14 (x24 (x24 x12 x14) x12))) (and (not (= (x24 (x24 x12 x12) x12) x12)) (and (not (= (x24 (x24 x12 x140) x12) x140)) (not (= x17 (x24 (x24 x12 x17) x12)))))))))))
(assert (and (and (and (= (x24 x90 x90) x140) (= (x24 x90 x14) x17)) (= (x24 x17 x14) x12)) (= x90 (x24 x14 x14))))
(assert (and (not (= x14 x90)) (and (and (and (not (= x90 x17)) (and (not (= x14 x17)) (and (not (= x12 x17)) (and (and (and (not (= x17 x140)) (not (= x12 x140))) (not (= x140 x14))) (not (= x140 x90)))))) (not (= x14 x12))) (not (= x12 x90)))))
(assert (let ((x125 (x24 x140 x17)) (x157 (x24 x17 x140)) (x74 (x24 x140 x90)) (x36 (x24 x140 x14)) (x7 (x24 x90 x17)) (x97 (x24 x90 x12)) (x31 (x24 x17 x14)) (x83 (x24 x14 x17)) (x130 (x24 x12 x140)) (x22 (x24 x14 x12)) (x60 (x24 x140 x12)) (x70 (x24 x14 x14)) (x137 (x24 x12 x17)) (x32 (x24 x90 x14)) (x88 (x24 x12 x90)) (x80 (x24 x12 x14)) (x26 (x24 x140 x140)) (x64 (x24 x12 x12)) (x67 (x24 x90 x90)) (x124 (x24 x17 x12)) (x134 (x24 x17 x90)) (x37 (x24 x17 x17)) (x25 (x24 x90 x140)) (x133 (x24 x14 x140)) (x141 (x24 x14 x90))) (or (and (not (= (x24 x67 x67) x90)) (and (and (and (not (= (x24 x7 x7) x17)) (not (= (x24 x25 x25) x140))) (not (= (x24 x97 x97) x12))) (not (= x14 (x24 x32 x32))))) (or (and (and (not (= x14 (x24 x70 x70))) (and (and (not (= (x24 x83 x83) x17)) (not (= x140 (x24 x133 x133)))) (not (= (x24 x22 x22) x12)))) (not (= x90 (x24 x141 x141)))) (or (and (and (not (= x14 (x24 x80 x80))) (and (and (not (= (x24 x130 x130) x140)) (not (= (x24 x137 x137) x17))) (not (= x12 (x24 x64 x64))))) (not (= x90 (x24 x88 x88)))) (or (and (not (= (x24 x74 x74) x90)) (and (and (not (= x12 (x24 x60 x60))) (and (not (= x140 (x24 x26 x26))) (not (= (x24 x125 x125) x17)))) (not (= (x24 x36 x36) x14)))) (and (and (and (not (= x12 (x24 x124 x124))) (and (not (= x140 (x24 x157 x157))) (not (= x17 (x24 x37 x37))))) (not (= (x24 x31 x31) x14))) (not (= (x24 x134 x134) x90)))))))))
(assert (or (= (x24 x90 x90) x90) (or (= (x24 x14 x14) x14) (or (= (x24 x12 x12) x12) (or (= x17 (x24 x17 x17)) (= (x24 x140 x140) x140))))))
(assert (let ((x31 (x24 x14 x17)) (x157 (x24 x140 x17)) (x80 (x24 x14 x12)) (x125 (x24 x17 x140)) (x26 (x24 x140 x140)) (x36 (x24 x14 x140)) (x134 (x24 x90 x17)) (x7 (x24 x17 x90)) (x141 (x24 x90 x14)) (x32 (x24 x14 x90)) (x83 (x24 x17 x14)) (x37 (x24 x17 x17)) (x64 (x24 x12 x12)) (x133 (x24 x140 x14)) (x70 (x24 x14 x14)) (x88 (x24 x90 x12)) (x124 (x24 x12 x17)) (x137 (x24 x17 x12)) (x130 (x24 x140 x12)) (x67 (x24 x90 x90)) (x25 (x24 x140 x90)) (x97 (x24 x12 x90)) (x60 (x24 x12 x140)) (x22 (x24 x12 x14)) (x74 (x24 x90 x140))) (and (and (and (not (= x32 x67)) (and (not (= x67 x97)) (and (and (and (and (and (not (= x25 x67)) (and (not (= x25 x32)) (and (not (= x25 x97)) (not (= x7 x25))))) (not (= x7 x97))) (not (= x32 x7))) (not (= x7 x67))) (not (= x97 x32))))) (and (and (not (= x70 x141)) (and (and (and (and (not (= x83 x70)) (and (not (= x83 x22)) (and (and (not (= x133 x70)) (and (not (= x133 x22)) (not (= x83 x133)))) (not (= x133 x141))))) (not (= x141 x83))) (not (= x22 x70))) (not (= x141 x22)))) (and (and (and (and (and (and (and (and (not (= x130 x88)) (and (not (= x130 x80)) (and (not (= x130 x64)) (not (= x130 x137))))) (not (= x137 x64))) (not (= x80 x137))) (not (= x137 x88))) (not (= x64 x80))) (not (= x88 x64))) (not (= x88 x80))) (and (and (and (not (= x60 x74)) (and (and (and (and (and (and (and (not (= x26 x125)) (not (= x60 x26))) (not (= x36 x26))) (not (= x26 x74))) (not (= x125 x60))) (not (= x125 x36))) (not (= x74 x125))) (not (= x60 x36)))) (not (= x74 x36))) (and (not (= x134 x31)) (and (and (not (= x31 x124)) (and (and (and (and (and (and (not (= x37 x157)) (not (= x157 x124))) (not (= x31 x157))) (not (= x157 x134))) (not (= x37 x124))) (not (= x37 x31))) (not (= x37 x134)))) (not (= x134 x124)))))))) (and (and (and (and (not (= x88 x141)) (and (not (= x67 x134)) (and (and (and (not (= x74 x67)) (and (and (not (= x74 x134)) (not (= x88 x74))) (not (= x141 x74)))) (not (= x134 x88))) (not (= x134 x141))))) (not (= x88 x67))) (not (= x141 x67))) (and (and (not (= x32 x70)) (and (and (and (and (and (and (and (not (= x70 x36)) (and (not (= x80 x36)) (not (= x31 x36)))) (not (= x32 x36))) (not (= x80 x31))) (not (= x70 x31))) (not (= x32 x31))) (not (= x70 x80))) (not (= x80 x32)))) (and (and (and (and (and (and (and (not (= x83 x37)) (and (and (not (= x7 x125)) (and (and (not (= x37 x125)) (not (= x137 x125))) (not (= x125 x83)))) (not (= x37 x137)))) (not (= x37 x7))) (not (= x137 x83))) (not (= x137 x7))) (not (= x7 x83))) (and (and (not (= x25 x130)) (and (and (and (and (and (not (= x26 x25)) (and (not (= x133 x26)) (and (not (= x26 x157)) (not (= x26 x130))))) (not (= x157 x130))) (not (= x157 x133))) (not (= x157 x25))) (not (= x133 x130)))) (not (= x133 x25)))) (and (not (= x97 x22)) (and (and (not (= x64 x22)) (and (and (not (= x22 x124)) (and (not (= x124 x64)) (and (not (= x60 x97)) (and (and (not (= x60 x64)) (not (= x124 x60))) (not (= x60 x22)))))) (not (= x97 x124)))) (not (= x97 x64))))))))))
(assert (let ((x64 (x24 x140 x17)) (x7 (x24 x17 x12)) (x81 (x24 x12 x90)) (x32 (x24 x17 x90)) (x97 (x24 x17 x14)) (x125 (x24 x140 x140)) (x133 (x24 x140 x14)) (x88 (x24 x140 x12)) (x44 (x24 x12 x14)) (x83 (x24 x140 x90)) (x148 (x24 x90 x90)) (x36 (x24 x17 x140)) (x134 (x24 x90 x140)) (x28 (x24 x12 x12)) (x157 (x24 x12 x140)) (x126 (x24 x14 x12)) (x124 (x24 x14 x140)) (x53 (x24 x90 x17)) (x87 (x24 x14 x14)) (x153 (x24 x90 x14)) (x119 (x24 x90 x12)) (x57 (x24 x12 x17)) (x141 (x24 x17 x17)) (x117 (x24 x14 x90)) (x35 (x24 x14 x17))) (let ((x47 (= x90 x87)) (x145 (= x90 x125)) (x85 (= x140 x119)) (x40 (= x140 x148)) (x147 (= x140 x117)) (x158 (= x117 x14)) (x149 (= x140 x153)) (x11 (= x90 x81)) (x21 (= x117 x12)) (x49 (= x153 x12)) (x109 (= x90 x148)) (x154 (= x12 x28)) (x89 (= x57 x140)) (x5 (= x64 x90)) (x110 (= x141 x12)) (x38 (= x88 x140)) (x106 (= x64 x12)) (x93 (= x126 x14)) (x50 (= x32 x17)) (x60 (= x36 x140)) (x51 (= x124 x14)) (x29 (= x14 x134)) (x146 (= x12 x134)) (x65 (= x119 x12)) (x34 (= x17 x126)) (x102 (= x12 x81)) (x31 (= x140 x134)) (x96 (= x35 x17)) (x151 (= x90 x53)) (x159 (= x14 x153)) (x122 (= x133 x14)) (x105 (= x133 x90)) (x75 (= x36 x90)) (x3 (= x17 x87)) (x1 (= x14 x53)) (x56 (= x64 x14)) (x91 (= x28 x17)) (x82 (= x90 x157)) (x135 (= x12 x57)) (x156 (= x17 x83)) (x71 (= x90 x153)) (x79 (= x7 x12)) (x150 (= x12 x133)) (x137 (= x140 x64)) (x73 (= x157 x12)) (x128 (= x157 x14)) (x78 (= x17 x7)) (x112 (= x140 x97)) (x127 (= x124 x12)) (x108 (= x81 x17)) (x100 (= x12 x126)) (x6 (= x12 x44)) (x33 (= x87 x14)) (x19 (= x117 x90)) (x118 (= x17 x119)) (x10 (= x119 x90)) (x59 (= x90 x32)) (x101 (= x148 x12)) (x144 (= x14 x7)) (x22 (= x17 x36)) (x42 (= x14 x97)) (x13 (= x134 x90)) (x77 (= x14 x83)) (x30 (= x14 x36)) (x142 (= x140 x126)) (x39 (= x140 x28)) (x62 (= x124 x90)) (x70 (= x141 x140)) (x113 (= x87 x140)) (x46 (= x35 x12)) (x26 (= x140 x125)) (x92 (= x81 x140)) (x84 (= x12 x32)) (x37 (= x124 x140)) (x120 (= x88 x17)) (x61 (= x17 x44)) (x95 (= x134 x17)) (x139 (= x141 x14)) (x123 (= x7 x140)) (x16 (= x90 x141)) (x74 (= x157 x140)) (x131 (= x28 x90)) (x20 (= x17 x53)) (x25 (= x141 x17)) (x152 (= x148 x14)) (x66 (= x124 x17)) (x18 (= x14 x81)) (x9 (= x35 x14)) (x98 (= x90 x97)) (x41 (= x140 x44)) (x80 (= x64 x17)) (x45 (= x44 x90)) (x76 (= x140 x35)) (x68 (= x90 x7)) (x69 (= x14 x28)) (x138 (= x88 x90)) (x2 (= x17 x133)) (x52 (= x117 x17)) (x43 (= x32 x140)) (x54 (= x83 x140)) (x114 (= x125 x14)) (x58 (= x12 x53)) (x129 (= x14 x44)) (x4 (= x140 x133)) (x23 (= x90 x126)) (x111 (= x12 x36)) (x116 (= x83 x12)) (x130 (= x17 x125)) (x136 (= x12 x87)) (x86 (= x14 x57)) (x94 (= x88 x12)) (x15 (= x12 x125)) (x8 (= x90 x57)) (x121 (= x140 x53)) (x72 (= x14 x88)) (x55 (= x17 x97)) (x99 (= x17 x57)) (x132 (= x83 x90)) (x115 (= x148 x17)) (x63 (= x35 x90)) (x107 (= x14 x32)) (x67 (= x17 x157)) (x27 (= x14 x119)) (x48 (= x97 x12)) (x143 (= x17 x153))) (or (or (or (and (and (and (and (and (and (and (and (or x120 (not x106)) (or x38 (not x15))) (or (not x94) x94)) (or x72 (not x150))) (or (not x116) x138)) (and (and (or x144 (not x48)) (and (or x79 (not x79)) (and (or (not x110) x78) (or x123 (not x111))))) (or (not x84) x68))) (and (or (not x102) x131) (and (or (not x6) x69) (and (and (or (not x135) x91) (or x39 (not x73))) (or (not x154) x154))))) (and (and (and (and (or x34 (not x46)) (or (not x127) x142)) (or (not x100) x100)) (or (not x136) x93)) (or x23 (not x21)))) (and (or (not x101) x10) (and (or x27 (not x49)) (and (and (or (not x146) x85) (or x118 (not x58))) (or (not x65) x65))))) (or (and (and (and (or x63 (not x52)) (and (or (not x3) x9) (and (or (not x34) x46) (and (or x76 (not x66)) (or (not x96) x96))))) (and (and (and (or (not x50) x16) (and (and (or x110 (not x78)) (and (or x25 (not x25)) (or (not x22) x70))) (or (not x55) x139))) (and (or (not x156) x5) (and (or (not x2) x56) (and (and (or (not x80) x80) (or x137 (not x130))) (or x106 (not x120)))))) (and (and (and (and (or x99 (not x99)) (or (not x67) x89)) (or x135 (not x91))) (or x86 (not x61))) (or (not x108) x8)))) (and (or x151 (not x115)) (and (or (not x143) x1) (and (or x58 (not x118)) (and (or (not x95) x121) (or (not x20) x20)))))) (and (and (and (and (and (and (and (and (or x130 (not x137)) (or x26 (not x26))) (or (not x38) x15)) (or (not x4) x114)) (or x145 (not x54))) (and (or x75 (not x43)) (and (or (not x112) x30) (and (or (not x123) x111) (and (or x22 (not x70)) (or x60 (not x60))))))) (and (and (or (not x41) x128) (and (and (or (not x89) x67) (or x74 (not x74))) (or x73 (not x39)))) (or (not x92) x82))) (and (or x62 (not x147)) (and (and (or (not x142) x127) (and (or x66 (not x76)) (or x37 (not x37)))) (or x51 (not x113))))) (and (or x13 (not x40)) (and (and (or x146 (not x85)) (and (or x95 (not x121)) (or x31 (not x31)))) (or x29 (not x149))))))) (and (and (and (and (and (and (or x113 (not x51)) (or (not x9) x3)) (or (not x93) x136)) (or (not x33) x33)) (or (not x158) x47)) (and (and (or x45 (not x18)) (and (and (and (or x61 (not x86)) (or (not x128) x41)) (or x6 (not x69))) (or (not x129) x129))) (and (and (or (not x107) x98) (and (or (not x42) x42) (and (and (or (not x139) x55) (or x112 (not x30))) (or x48 (not x144))))) (and (or (not x77) x105) (and (and (or x150 (not x72)) (and (or (not x56) x2) (or (not x114) x4))) (or (not x122) x122)))))) (and (or (not x152) x71) (and (or (not x159) x159) (and (and (or (not x29) x149) (or x143 (not x1))) (or x49 (not x27))))))) (and (and (or x109 (not x109)) (and (and (or (not x10) x101) (and (or (not x13) x40) (or x115 (not x151)))) (or (not x71) x152))) (and (and (and (and (or x132 (not x132)) (and (and (or (not x138) x116) (and (or x54 (not x145)) (or x156 (not x5)))) (or x77 (not x105)))) (and (and (and (or x84 (not x68)) (and (or x50 (not x16)) (or (not x75) x43))) (or (not x98) x107)) (or x59 (not x59)))) (and (or (not x11) x11) (and (and (or x102 (not x131)) (and (or x92 (not x82)) (or x108 (not x8)))) (or (not x45) x18)))) (and (or x19 (not x19)) (and (or x158 (not x47)) (and (and (or x147 (not x62)) (or (not x63) x52)) (or x21 (not x23)))))))))))
(assert (let ((x60 (x24 x17 x17)) (x74 (x24 x14 x14)) (x36 (x24 x12 x12)) (x125 (x24 x140 x140)) (x157 (x24 x90 x90))) (let ((x64 (= x36 x12)) (x80 (= x74 x14)) (x88 (= x90 x157)) (x124 (= x60 x17)) (x26 (= x125 x140))) (let ((x137 (or x88 (or (= x74 x90) (or (= x36 x90) (or (= x60 x90) (= x90 x125)))))) (x134 (or (= x157 x12) (or (= x74 x12) (or (or (= x12 x125) (= x12 x60)) x64)))) (x130 (or (or x80 (or (or (= x60 x14) (= x125 x14)) (= x36 x14))) (= x157 x14))) (x31 (or (= x157 x17) (or (or (= x17 x36) (or x124 (= x17 x125))) (= x74 x17)))) (x37 (or (= x157 x140) (or (or (or x26 (= x60 x140)) (= x140 x36)) (= x74 x140))))) (and (and (and (and (or x134 (not (= (x24 x90 x12) x90))) (and (or x37 (not (= x90 (x24 x90 x140)))) (or (not (= (x24 x90 x17) x90)) x31))) (or (not (= x90 (x24 x90 x14))) x130)) (or (not x88) x137)) (and (and (and (and (or x137 (not (= x17 (x24 x17 x90)))) (and (or (not (= x17 (x24 x17 x14))) x130) (and (or x134 (not (= (x24 x17 x12) x17))) (and (or x37 (not (= x17 (x24 x17 x140)))) (or (not x124) x31))))) (and (or x137 (not (= (x24 x140 x90) x140))) (and (and (and (or x31 (not (= x140 (x24 x140 x17)))) (or (not x26) x37)) (or (not (= (x24 x140 x12) x140)) x134)) (or (not (= x140 (x24 x140 x14))) x130)))) (and (or (not (= x12 (x24 x12 x90))) x137) (and (or (not (= x12 (x24 x12 x14))) x130) (and (and (or (not (= (x24 x12 x140) x12)) x37) (or x31 (not (= (x24 x12 x17) x12)))) (or (not x64) x134))))) (and (and (or x130 (not x80)) (and (or (not (= (x24 x14 x12) x14)) x134) (and (or x37 (not (= (x24 x14 x140) x14))) (or (not (= x14 (x24 x14 x17))) x31)))) (or (not (= (x24 x14 x90) x14)) x137))))))))
(assert (let ((x7 (x24 x17 x90)) (x57 (x24 x90 x17)) (x48 (x24 x90 x14)) (x50 (x24 x90 x90)) (x74 (x24 x140 x14)) (x157 (x24 x140 x90)) (x153 (x24 x12 x12)) (x31 (x24 x12 x140)) (x60 (x24 x140 x17)) (x141 (x24 x17 x12)) (x125 (x24 x140 x140)) (x25 (x24 x17 x14)) (x36 (x24 x140 x12)) (x134 (x24 x14 x140)) (x122 (x24 x14 x14)) (x30 (x24 x14 x90)) (x94 (x24 x14 x12)) (x111 (x24 x90 x12)) (x15 (x24 x12 x90)) (x124 (x24 x17 x140)) (x130 (x24 x90 x140)) (x89 (x24 x14 x17)) (x70 (x24 x17 x17)) (x148 (x24 x12 x14)) (x67 (x24 x12 x17))) (let ((x76 (= x14 x70)) (x27 (= x90 x148)) (x127 (= x14 x153)) (x96 (= x90 x60)) (x133 (= x60 x140)) (x13 (= x130 x90)) (x102 (= x7 x12)) (x121 (= x140 x141)) (x123 (= x31 x12)) (x58 (= x89 x140)) (x21 (= x7 x14)) (x59 (= x17 x50)) (x105 (= x140 x30)) (x45 (= x15 x12)) (x2 (= x134 x17)) (x154 (= x14 x141)) (x93 (= x14 x148)) (x63 (= x14 x111)) (x49 (= x90 x122)) (x18 (= x12 x30)) (x144 (= x17 x122)) (x120 (= x17 x153)) (x143 (= x90 x25)) (x47 (= x14 x15)) (x106 (= x141 x17)) (x55 (= x148 x17)) (x16 (= x17 x48)) (x84 (= x17 x7)) (x61 (= x25 x12)) (x32 (= x70 x17)) (x65 (= x74 x140)) (x116 (= x15 x140)) (x44 (= x12 x70)) (x3 (= x25 x14)) (x51 (= x89 x14)) (x23 (= x157 x14)) (x46 (= x67 x90)) (x118 (= x140 x94)) (x95 (= x36 x140)) (x43 (= x17 x111)) (x4 (= x148 x140)) (x107 (= x30 x17)) (x26 (= x140 x125)) (x75 (= x57 x17)) (x152 (= x30 x90)) (x68 (= x157 x17)) (x77 (= x140 x50)) (x87 (= x140 x31)) (x135 (= x14 x67)) (x40 (= x57 x90)) (x100 (= x141 x90)) (x98 (= x17 x15)) (x78 (= x12 x36)) (x146 (= x153 x90)) (x41 (= x12 x94)) (x6 (= x122 x12)) (x136 (= x14 x122)) (x88 (= x124 x140)) (x9 (= x14 x74)) (x69 (= x148 x12)) (x83 (= x70 x140)) (x54 (= x111 x140)) (x79 (= x141 x12)) (x132 (= x130 x17)) (x117 (= x67 x140)) (x28 (= x60 x12)) (x56 (= x140 x122)) (x128 (= x89 x12)) (x137 (= x125 x12)) (x101 (= x7 x90)) (x34 (= x36 x90)) (x19 (= x14 x50)) (x64 (= x14 x125)) (x86 (= x74 x12)) (x159 (= x140 x130)) (x129 (= x134 x14)) (x92 (= x12 x57)) (x5 (= x48 x140)) (x97 (= x17 x60)) (x114 (= x140 x25)) (x72 (= x89 x17)) (x113 (= x14 x94)) (x99 (= x12 x124)) (x42 (= x12 x134)) (x147 (= x57 x14)) (x149 (= x94 x90)) (x80 (= x90 x125)) (x145 (= x140 x57)) (x33 (= x90 x134)) (x108 (= x48 x12)) (x71 (= x90 x15)) (x62 (= x14 x130)) (x119 (= x17 x67)) (x131 (= x12 x157)) (x20 (= x31 x17)) (x53 (= x153 x140)) (x10 (= x157 x90)) (x38 (= x36 x17)) (x39 (= x31 x14)) (x37 (= x17 x125)) (x138 (= x7 x140)) (x91 (= x36 x14)) (x35 (= x90 x124)) (x156 (= x140 x157)) (x73 (= x153 x12)) (x29 (= x90 x89)) (x150 (= x17 x94)) (x112 (= x74 x17)) (x52 (= x48 x14)) (x109 (= x90 x50)) (x115 (= x90 x48)) (x11 (= x50 x12)) (x81 (= x14 x124)) (x82 (= x12 x130)) (x8 (= x12 x111)) (x158 (= x14 x30)) (x22 (= x17 x124)) (x110 (= x67 x12)) (x126 (= x70 x90)) (x151 (= x90 x111)) (x142 (= x31 x90)) (x85 (= x140 x134)) (x1 (= x74 x90)) (x139 (= x25 x17)) (x66 (= x60 x14))) (and (and (and (and (and (and (and (or (or (or x39 (or x81 x64)) x129) x62) (or (or (or x91 (or x66 x64)) x9) x23)) (and (and (or (or x86 (or (or x28 x137) x78)) x131) (or (or x42 (or (or x137 x99) x123)) x82)) (and (and (or x68 (or x112 (or (or x37 x97) x38))) (or (or (or (or x37 x22) x20) x2) x132)) (and (or (or x85 (or x87 (or x88 x26))) x159) (or (or x65 (or (or x133 x26) x95)) x156))))) (and (or (or (or x34 (or x80 x96)) x1) x10) (or (or x33 (or (or x35 x80) x142)) x13))) (and (and (or (or x143 (or x100 (or x126 x35))) x101) (or (or (or (or x96 x126) x46) x29) x40)) (and (and (and (or (or x128 (or (or x44 x28) x110)) x92) (or (or (or (or x44 x99) x79) x61) x102)) (and (and (or (or (or x117 (or x133 x83)) x58) x145) (or (or (or x121 (or x88 x83)) x114) x138)) (and (or x84 (or x139 (or x106 (or x32 x22)))) (or x75 (or (or x119 (or x32 x97)) x72))))) (and (or x21 (or x3 (or (or x81 x76) x154))) (or x147 (or (or (or x76 x66) x135) x51)))))) (and (and (or (or (or x146 (or x100 x34)) x149) x151) (or (or x27 (or (or x46 x142) x146)) x71)) (and (and (and (and (or (or x150 (or (or x38 x106) x120)) x43) (or (or (or x120 (or x20 x119)) x55) x98)) (and (or x54 (or (or (or x95 x121) x53) x118)) (or (or (or (or x117 x87) x53) x4) x116))) (and (or x45 (or (or (or x110 x123) x73) x69)) (or (or x41 (or (or x78 x79) x73)) x8))) (and (or (or (or (or x91 x154) x127) x113) x63) (or (or (or x127 (or x39 x135)) x93) x47))))) (and (and (or (or (or x149 (or x29 x33)) x49) x152) (or x115 (or x49 (or (or x1 x143) x27)))) (and (and (and (or x18 (or x6 (or x41 (or x128 x42)))) (or (or (or x69 (or x86 x61)) x6) x108)) (and (and (or x107 (or x144 (or (or x2 x72) x150))) (or (or x144 (or x55 (or x139 x112))) x16)) (and (or x105 (or x56 (or x118 (or x85 x58)))) (or x5 (or (or x4 (or x65 x114)) x56))))) (and (or (or (or x113 (or x51 x129)) x136) x158) (or x52 (or x136 (or x93 (or x9 x3)))))))) (and (and (or x109 (or (or (or x101 x10) x71) x152)) (or x109 (or x115 (or (or x13 x40) x151)))) (and (and (or (or (or (or x62 x147) x63) x52) x19) (or x19 (or x158 (or (or x23 x21) x47)))) (and (and (or x11 (or (or (or x102 x131) x45) x18)) (or (or (or (or x92 x82) x8) x108) x11)) (and (and (or x77 (or (or (or x156 x138) x116) x105)) (or x77 (or (or x54 (or x145 x159)) x5))) (and (or (or (or (or x84 x68) x98) x107) x59) (or (or x16 (or x43 (or x132 x75))) x59))))))))))
(assert (and (and (or (not (= x90 (x24 (x24 x90 x14) x14))) (or (not (= (x24 (x24 x14 x14) x14) x14)) (or (or (not (= (x24 (x24 x17 x14) x14) x17)) (not (= (x24 (x24 x140 x14) x14) x140))) (not (= x12 (x24 (x24 x12 x14) x14)))))) (and (or (or (or (or (not (= x17 (x24 (x24 x17 x12) x12))) (not (= x140 (x24 (x24 x140 x12) x12)))) (not (= (x24 (x24 x12 x12) x12) x12))) (not (= (x24 (x24 x14 x12) x12) x14))) (not (= x90 (x24 (x24 x90 x12) x12)))) (and (or (not (= (x24 (x24 x90 x17) x17) x90)) (or (or (not (= x12 (x24 (x24 x12 x17) x17))) (or (not (= (x24 (x24 x140 x17) x17) x140)) (not (= (x24 (x24 x17 x17) x17) x17)))) (not (= (x24 (x24 x14 x17) x17) x14)))) (or (not (= (x24 (x24 x90 x140) x140) x90)) (or (or (not (= x12 (x24 (x24 x12 x140) x140))) (or (not (= x17 (x24 (x24 x17 x140) x140))) (not (= (x24 (x24 x140 x140) x140) x140)))) (not (= (x24 (x24 x14 x140) x140) x14))))))) (or (or (or (not (= x12 (x24 (x24 x12 x90) x90))) (or (not (= (x24 (x24 x17 x90) x90) x17)) (not (= (x24 (x24 x140 x90) x90) x140)))) (not (= (x24 (x24 x14 x90) x90) x14))) (not (= (x24 (x24 x90 x90) x90) x90)))))
(assert (let ((x117 (x24 x17 x17)) (x119 (x24 x14 x17)) (x110 (x24 x14 x12)) (x99 (x24 x140 x17)) (x89 (x24 x140 x140)) (x100 (x24 x90 x14)) (x81 (x24 x12 x140)) (x20 (x24 x17 x14)) (x123 (x24 x12 x14)) (x96 (x24 x90 x140)) (x78 (x24 x12 x90)) (x153 (x24 x17 x90)) (x79 (x24 x90 x12)) (x94 (x24 x12 x12)) (x2 (x24 x90 x90)) (x34 (x24 x14 x90)) (x44 (x24 x140 x12)) (x121 (x24 x17 x12)) (x142 (x24 x14 x14)) (x53 (x24 x12 x17)) (x66 (x24 x140 x14)) (x28 (x24 x17 x140)) (x148 (x24 x90 x17)) (x35 (x24 x140 x90)) (x76 (x24 x14 x140))) (let ((x74 (not (= x140 x81))) (x64 (not (= x140 x20))) (x13 (not (= x96 x90))) (x120 (not (= x17 x121))) (x126 (not (= x28 x17))) (x93 (not (= x12 x79))) (x125 (not (= x28 x140))) (x97 (not (= x140 x100))) (x80 (not (= x110 x140))) (x116 (not (= x66 x14))) (x95 (not (= x117 x17))) (x149 (not (= x12 x2))) (x98 (not (= x79 x14))) (x85 (not (= x17 x35))) (x25 (not (= x79 x140))) (x127 (not (= x123 x17))) (x73 (not (= x17 x76))) (x7 (not (= x78 x140))) (x48 (not (= x121 x12))) (x57 (not (= x17 x89))) (x113 (not (= x12 x35))) (x69 (not (= x12 x110))) (x145 (not (= x44 x14))) (x49 (not (= x117 x14))) (x71 (not (= x100 x90))) (x137 (not (= x119 x140))) (x46 (not (= x17 x142))) (x139 (not (= x81 x12))) (x42 (not (= x94 x12))) (x132 (not (= x110 x14))) (x8 (not (= x89 x90))) (x124 (not (= x121 x140))) (x26 (not (= x89 x140))) (x83 (not (= x140 x96))) (x86 (not (= x119 x12))) (x3 (not (= x12 x153))) (x136 (not (= x12 x78))) (x154 (not (= x17 x110))) (x150 (not (= x89 x12))) (x102 (not (= x117 x90))) (x122 (not (= x28 x12))) (x1 (not (= x89 x14))) (x130 (not (= x140 x66))) (x41 (not (= x66 x12))) (x68 (not (= x14 x148))) (x63 (not (= x76 x90))) (x31 (not (= x94 x140))) (x84 (not (= x14 x153))) (x58 (not (= x148 x17))) (x72 (not (= x2 x17))) (x30 (not (= x12 x99))) (x82 (not (= x34 x14))) (x40 (not (= x35 x90))) (x5 (not (= x121 x14))) (x67 (not (= x140 x2))) (x29 (not (= x34 x12))) (x18 (not (= x44 x90))) (x129 (not (= x12 x142))) (x135 (not (= x119 x17))) (x144 (not (= x12 x53))) (x146 (not (= x17 x96))) (x91 (not (= x17 x20))) (x54 (not (= x14 x53))) (x108 (not (= x90 x28))) (x51 (not (= x12 x96))) (x106 (not (= x53 x17))) (x70 (not (= x140 x148))) (x52 (not (= x66 x90))) (x133 (not (= x140 x142))) (x112 (not (= x12 x117))) (x115 (not (= x90 x153))) (x156 (not (= x14 x94))) (x62 (not (= x90 x121))) (x11 (not (= x53 x90))) (x23 (not (= x119 x90))) (x109 (not (= x90 x2))) (x131 (not (= x90 x99))) (x92 (not (= x14 x2))) (x157 (not (= x44 x140))) (x59 (not (= x14 x100))) (x138 (not (= x76 x14))) (x75 (not (= x14 x123))) (x151 (not (= x148 x90))) (x33 (not (= x100 x12))) (x45 (not (= x90 x81))) (x16 (not (= x96 x14))) (x114 (not (= x17 x78))) (x77 (not (= x20 x14))) (x101 (not (= x78 x90))) (x111 (not (= x17 x94))) (x27 (not (= x14 x99))) (x118 (not (= x17 x153))) (x22 (not (= x140 x35))) (x55 (not (= x44 x12))) (x9 (not (= x12 x148))) (x38 (not (= x44 x17))) (x39 (not (= x66 x17))) (x43 (not (= x142 x14))) (x10 (not (= x90 x79))) (x88 (not (= x123 x140))) (x4 (not (= x100 x17))) (x6 (not (= x12 x123))) (x15 (not (= x81 x17))) (x128 (not (= x12 x76))) (x47 (not (= x110 x90))) (x50 (not (= x35 x14))) (x134 (not (= x140 x76))) (x32 (not (= x140 x34))) (x105 (not (= x14 x119))) (x147 (not (= x90 x94))) (x65 (not (= x17 x79))) (x21 (not (= x20 x90))) (x141 (not (= x140 x153))) (x87 (not (= x17 x99))) (x61 (not (= x20 x12))) (x60 (not (= x140 x99))) (x107 (not (= x78 x14))) (x56 (not (= x17 x34))) (x37 (not (= x140 x53))) (x36 (not (= x140 x117))) (x19 (not (= x90 x142))) (x152 (not (= x34 x90))) (x159 (not (= x14 x81))) (x158 (not (= x123 x90))) (x143 (not (= x14 x28)))) (or (and (and (and (or x71 x152) (and (or x10 x101) (and (or x13 x40) (or x115 x151)))) (or x109 x109)) (and (and (and (and (or x158 x47) (and (and (or x45 x18) (or x11 x62)) (or x147 x147))) (or x10 x101)) (and (and (or x13 x40) (and (and (and (or x8 x8) (or x131 x108)) (or x45 x18)) (or x63 x52))) (and (or x115 x151) (and (or x21 x23) (and (and (or x108 x131) (or x102 x102)) (or x62 x11)))))) (and (or x71 x152) (and (or x19 x19) (and (and (or x21 x23) (or x52 x63)) (or x47 x158)))))) (or (or (or (and (and (and (or x32 x97) (and (and (or x80 x88) (and (or x137 x64) (or x130 x134))) (or x133 x133))) (and (and (and (or x22 x83) (and (and (and (or x26 x26) (or x125 x60)) (or x74 x157)) (or x134 x130))) (and (and (and (or x37 x124) (and (or x36 x36) (or x60 x125))) (or x64 x137)) (or x70 x141))) (and (and (or x80 x88) (and (and (or x37 x124) (or x74 x157)) (or x31 x31))) (or x7 x25)))) (and (or x67 x67) (and (and (or x7 x25) (and (or x83 x22) (or x70 x141))) (or x32 x97)))) (and (and (and (and (and (and (or x73 x39) (and (and (or x57 x57) (or x126 x87)) (or x38 x15))) (or x85 x146)) (and (and (and (and (or x95 x95) (or x87 x126)) (or x106 x120)) (or x91 x135)) (or x58 x118))) (and (or x65 x114) (and (and (or x111 x111) (and (or x15 x38) (or x106 x120))) (or x154 x127)))) (and (or x56 x4) (and (and (or x154 x127) (and (or x91 x135) (or x73 x39))) (or x46 x46)))) (and (or x72 x72) (and (and (or x65 x114) (and (or x58 x118) (or x146 x85))) (or x56 x4))))) (and (and (and (or x33 x29) (and (or x136 x93) (and (or x113 x51) (or x9 x3)))) (or x149 x149)) (and (and (and (or x136 x93) (and (and (and (or x48 x144) (or x139 x55)) (or x42 x42)) (or x6 x69))) (and (and (or x51 x113) (and (and (or x55 x139) (and (or x122 x30) (or x150 x150))) (or x41 x128))) (and (or x3 x9) (and (or x61 x86) (and (and (or x112 x112) (or x122 x30)) (or x48 x144)))))) (and (or x33 x29) (and (and (and (or x41 x128) (or x61 x86)) (or x69 x6)) (or x129 x129)))))) (and (and (and (or x59 x82) (and (or x43 x43) (and (or x75 x132) (and (or x77 x105) (or x116 x138))))) (and (and (and (and (or x105 x77) (and (and (or x143 x27) (or x49 x49)) (or x5 x54))) (or x84 x68)) (and (and (or x138 x116) (and (and (or x27 x143) (or x1 x1)) (or x159 x145))) (or x16 x50))) (and (or x98 x107) (and (or x132 x75) (and (or x156 x156) (and (or x145 x159) (or x54 x5))))))) (and (and (and (or x107 x98) (and (or x84 x68) (or x50 x16))) (or x82 x59)) (or x92 x92))))))))
(check-sat)
(exit)
